10,1,5,1,6,1,3,1,9,1,11,1,6,3,5,2,8,2,14,4,11,4;13,1,13,2,7,1,10,2,4,1,7,2,7,3,6,2,3,2,9,2,10,3,12,2,13,4,11,2,2,4,8,3,8,4,5,4;8,1,2,1,13,3,4,2,14,2,12,1,2,2,9,3,14,3,4,3,2,3,6,4,12,3,5,3,11,3,12,4;1,1,1,2,14,1,1,3,7,4,3,3,3,4,1,4,9,4,4,4,10,4;
